(set-logic QF_UF)
(declare-fun A0 () Bool)
(declare-fun A1 () Bool)
(declare-fun A2 () Bool)
(declare-fun A3 () Bool)
(declare-fun A4 () Bool)
(declare-fun A5 () Bool)
(declare-fun A6 () Bool)
(declare-fun A7 () Bool)
(declare-fun A8 () Bool)
(declare-fun A9 () Bool)
(declare-fun A10 () Bool)
(declare-fun A11 () Bool)
(declare-fun A12 () Bool)
(declare-fun A13 () Bool)
(declare-fun A14 () Bool)
(declare-fun A15 () Bool)
(declare-fun A16 () Bool)
(declare-fun A17 () Bool)
(declare-fun A18 () Bool)
(declare-fun A19 () Bool)
(declare-fun A20 () Bool)
(declare-fun A21 () Bool)
(declare-fun A22 () Bool)
(declare-fun A23 () Bool)
(declare-fun A24 () Bool)
(assert (let ((.def_0 (not A21))) (let ((.def_1 (or A21 .def_0))) (let ((.def_2 (or A0 A20))) (let ((.def_3 (not .def_2))) (let ((.def_4 (or .def_3 .def_1))) (let ((.def_5 (not .def_4))) (let ((.def_6 (not A16))) (let ((.def_7 (not A20))) (let ((.def_8 (and .def_7 .def_6))) (let ((.def_9 (not .def_8))) (let ((.def_10 (not A9))) (let ((.def_11 (or A18 .def_10))) (let ((.def_12 (not .def_11))) (let ((.def_13 (= .def_12 .def_9))) (let ((.def_14 (and .def_13 .def_5))) (let ((.def_15 (not A0))) (let ((.def_16 (= .def_15 A10))) (let ((.def_17 (or A3 .def_10))) (let ((.def_18 (not .def_17))) (let ((.def_19 (and .def_18 .def_16))) (let ((.def_20 (and A0 A18))) (let ((.def_21 (not A23))) (let ((.def_22 (= .def_21 A21))) (let ((.def_23 (or .def_22 .def_20))) (let ((.def_24 (and .def_23 .def_19))) (let ((.def_25 (not .def_24))) (let ((.def_26 (= .def_25 .def_14))) (let ((.def_27 (not .def_26))) (let ((.def_28 (or .def_15 A0))) (let ((.def_29 (and .def_21 A5))) (let ((.def_30 (and .def_29 .def_28))) (let ((.def_31 (not .def_30))) (let ((.def_32 (not A12))) (let ((.def_33 (and A6 .def_32))) (let ((.def_34 (not .def_33))) (let ((.def_35 (not A10))) (let ((.def_36 (or A19 .def_35))) (let ((.def_37 (not .def_36))) (let ((.def_38 (and .def_37 .def_34))) (let ((.def_39 (not .def_38))) (let ((.def_40 (or .def_39 .def_31))) (let ((.def_41 (not .def_40))) (let ((.def_42 (and .def_15 A18))) (let ((.def_43 (not .def_42))) (let ((.def_44 (not A5))) (let ((.def_45 (= A16 .def_44))) (let ((.def_46 (not .def_45))) (let ((.def_47 (and .def_46 .def_43))) (let ((.def_48 (not .def_47))) (let ((.def_49 (not A24))) (let ((.def_50 (and A20 .def_49))) (let ((.def_51 (and A17 .def_32))) (let ((.def_52 (and .def_51 .def_50))) (let ((.def_53 (or .def_52 .def_48))) (let ((.def_54 (not .def_53))) (let ((.def_55 (and .def_54 .def_41))) (let ((.def_56 (or .def_55 .def_27))) (let ((.def_57 (not .def_56))) (let ((.def_58 (not A19))) (let ((.def_59 (or .def_58 .def_44))) (let ((.def_60 (not .def_59))) (let ((.def_61 (and A17 A22))) (let ((.def_62 (or .def_61 .def_60))) (let ((.def_63 (not A22))) (let ((.def_64 (and A15 .def_63))) (let ((.def_65 (and .def_58 A9))) (let ((.def_66 (and .def_65 .def_64))) (let ((.def_67 (not .def_66))) (let ((.def_68 (or .def_67 .def_62))) (let ((.def_69 (not A1))) (let ((.def_70 (and A24 .def_69))) (let ((.def_71 (or A5 A4))) (let ((.def_72 (or .def_71 .def_70))) (let ((.def_73 (or .def_21 A13))) (let ((.def_74 (not .def_73))) (let ((.def_75 (= A7 A17))) (let ((.def_76 (not .def_75))) (let ((.def_77 (and .def_76 .def_74))) (let ((.def_78 (not .def_77))) (let ((.def_79 (and .def_78 .def_72))) (let ((.def_80 (not .def_79))) (let ((.def_81 (= .def_80 .def_68))) (let ((.def_82 (not .def_81))) (let ((.def_83 (or A8 A11))) (let ((.def_84 (and .def_15 A21))) (let ((.def_85 (and .def_84 .def_83))) (let ((.def_86 (not .def_85))) (let ((.def_87 (or .def_6 A13))) (let ((.def_88 (= A11 A2))) (let ((.def_89 (and .def_88 .def_87))) (let ((.def_90 (not .def_89))) (let ((.def_91 (or .def_90 .def_86))) (let ((.def_92 (not .def_91))) (let ((.def_93 (not A3))) (let ((.def_94 (and .def_49 .def_93))) (let ((.def_95 (and A11 .def_44))) (let ((.def_96 (not .def_95))) (let ((.def_97 (or .def_96 .def_94))) (let ((.def_98 (and .def_0 .def_69))) (let ((.def_99 (and A16 A16))) (let ((.def_100 (not .def_99))) (let ((.def_101 (or .def_100 .def_98))) (let ((.def_102 (or .def_101 .def_97))) (let ((.def_103 (not .def_102))) (let ((.def_104 (= .def_103 .def_92))) (let ((.def_105 (not .def_104))) (let ((.def_106 (or .def_105 .def_82))) (let ((.def_107 (not .def_106))) (let ((.def_108 (and .def_107 .def_57))) (let ((.def_109 (not .def_108))) (let ((.def_110 (and .def_21 .def_63))) (let ((.def_111 (not .def_110))) (let ((.def_112 (or .def_32 .def_10))) (let ((.def_113 (not .def_112))) (let ((.def_114 (and .def_113 .def_111))) (let ((.def_115 (and A8 A4))) (let ((.def_116 (not .def_115))) (let ((.def_117 (or A10 A11))) (let ((.def_118 (not .def_117))) (let ((.def_119 (and .def_118 .def_116))) (let ((.def_120 (and .def_119 .def_114))) (let ((.def_121 (and A14 A21))) (let ((.def_122 (not .def_121))) (let ((.def_123 (and A16 A11))) (let ((.def_124 (or .def_123 .def_122))) (let ((.def_125 (not .def_124))) (let ((.def_126 (not A15))) (let ((.def_127 (or .def_63 .def_126))) (let ((.def_128 (not .def_127))) (let ((.def_129 (or A21 A0))) (let ((.def_130 (not .def_129))) (let ((.def_131 (or .def_130 .def_128))) (let ((.def_132 (and .def_131 .def_125))) (let ((.def_133 (not .def_132))) (let ((.def_134 (and .def_133 .def_120))) (let ((.def_135 (and .def_58 .def_35))) (let ((.def_136 (or .def_7 A6))) (let ((.def_137 (not .def_136))) (let ((.def_138 (= .def_137 .def_135))) (let ((.def_139 (not A6))) (let ((.def_140 (and .def_0 .def_139))) (let ((.def_141 (not .def_140))) (let ((.def_142 (or A10 A10))) (let ((.def_143 (or .def_142 .def_141))) (let ((.def_144 (and .def_143 .def_138))) (let ((.def_145 (not .def_144))) (let ((.def_146 (= .def_126 A12))) (let ((.def_147 (or A5 .def_69))) (let ((.def_148 (not .def_147))) (let ((.def_149 (or .def_148 .def_146))) (let ((.def_150 (or A12 .def_93))) (let ((.def_151 (or .def_69 A22))) (let ((.def_152 (and .def_151 .def_150))) (let ((.def_153 (and .def_152 .def_149))) (let ((.def_154 (and .def_153 .def_145))) (let ((.def_155 (and .def_154 .def_134))) (let ((.def_156 (not .def_155))) (let ((.def_157 (or .def_32 A8))) (let ((.def_158 (not .def_157))) (let ((.def_159 (or .def_126 .def_0))) (let ((.def_160 (not .def_159))) (let ((.def_161 (or .def_160 .def_158))) (let ((.def_162 (not A8))) (let ((.def_163 (or .def_162 A8))) (let ((.def_164 (and .def_49 .def_21))) (let ((.def_165 (and .def_164 .def_163))) (let ((.def_166 (not .def_165))) (let ((.def_167 (= .def_166 .def_161))) (let ((.def_168 (not .def_167))) (let ((.def_169 (or A0 .def_32))) (let ((.def_170 (not .def_169))) (let ((.def_171 (and .def_0 A24))) (let ((.def_172 (and .def_171 .def_170))) (let ((.def_173 (not .def_172))) (let ((.def_174 (and .def_35 A20))) (let ((.def_175 (not .def_174))) (let ((.def_176 (or A14 A12))) (let ((.def_177 (not .def_176))) (let ((.def_178 (and .def_177 .def_175))) (let ((.def_179 (not .def_178))) (let ((.def_180 (or .def_179 .def_173))) (let ((.def_181 (not .def_180))) (let ((.def_182 (or .def_181 .def_168))) (let ((.def_183 (or A0 A5))) (let ((.def_184 (not A13))) (let ((.def_185 (and .def_184 .def_32))) (let ((.def_186 (= .def_185 .def_183))) (let ((.def_187 (or A17 A7))) (let ((.def_188 (not A14))) (let ((.def_189 (and .def_44 .def_188))) (let ((.def_190 (not .def_189))) (let ((.def_191 (or .def_190 .def_187))) (let ((.def_192 (or .def_191 .def_186))) (let ((.def_193 (and A9 A14))) (let ((.def_194 (and .def_126 .def_188))) (let ((.def_195 (or .def_194 .def_193))) (let ((.def_196 (or .def_69 .def_69))) (let ((.def_197 (and A13 .def_10))) (let ((.def_198 (not .def_197))) (let ((.def_199 (and .def_198 .def_196))) (let ((.def_200 (and .def_199 .def_195))) (let ((.def_201 (= .def_200 .def_192))) (let ((.def_202 (and .def_201 .def_182))) (let ((.def_203 (not .def_202))) (let ((.def_204 (and .def_203 .def_156))) (let ((.def_205 (not .def_204))) (let ((.def_206 (and .def_205 .def_109))) (let ((.def_207 (not .def_206))) (let ((.def_208 (not A7))) (let ((.def_209 (or A9 .def_208))) (let ((.def_210 (and .def_69 .def_15))) (let ((.def_211 (not .def_210))) (let ((.def_212 (or .def_211 .def_209))) (let ((.def_213 (not .def_212))) (let ((.def_214 (and A1 .def_21))) (let ((.def_215 (and .def_69 .def_32))) (let ((.def_216 (and .def_215 .def_214))) (let ((.def_217 (not .def_216))) (let ((.def_218 (or .def_217 .def_213))) (let ((.def_219 (not .def_218))) (let ((.def_220 (or A14 A8))) (let ((.def_221 (= A15 A11))) (let ((.def_222 (and .def_221 .def_220))) (let ((.def_223 (not .def_222))) (let ((.def_224 (not A4))) (let ((.def_225 (and .def_188 .def_224))) (let ((.def_226 (not .def_225))) (let ((.def_227 (or A15 A22))) (let ((.def_228 (not .def_227))) (let ((.def_229 (or .def_228 .def_226))) (let ((.def_230 (not .def_229))) (let ((.def_231 (or .def_230 .def_223))) (let ((.def_232 (not .def_231))) (let ((.def_233 (or .def_232 .def_219))) (let ((.def_234 (or .def_224 .def_15))) (let ((.def_235 (not .def_234))) (let ((.def_236 (and A20 .def_32))) (let ((.def_237 (and .def_236 .def_235))) (let ((.def_238 (not .def_237))) (let ((.def_239 (or .def_139 A20))) (let ((.def_240 (not .def_239))) (let ((.def_241 (or .def_58 A12))) (let ((.def_242 (and .def_241 .def_240))) (let ((.def_243 (not .def_242))) (let ((.def_244 (or .def_243 .def_238))) (let ((.def_245 (= .def_208 A22))) (let ((.def_246 (not A18))) (let ((.def_247 (and A3 .def_246))) (let ((.def_248 (or .def_247 .def_245))) (let ((.def_249 (and A14 A5))) (let ((.def_250 (not .def_249))) (let ((.def_251 (or .def_162 .def_7))) (let ((.def_252 (not .def_251))) (let ((.def_253 (= .def_252 .def_250))) (let ((.def_254 (and .def_253 .def_248))) (let ((.def_255 (or .def_254 .def_244))) (let ((.def_256 (not .def_255))) (let ((.def_257 (or .def_256 .def_233))) (let ((.def_258 (not .def_257))) (let ((.def_259 (and .def_0 A17))) (let ((.def_260 (or A0 .def_69))) (let ((.def_261 (not .def_260))) (let ((.def_262 (or .def_261 .def_259))) (let ((.def_263 (not A2))) (let ((.def_264 (or .def_263 A17))) (let ((.def_265 (not A17))) (let ((.def_266 (or .def_265 A8))) (let ((.def_267 (and .def_266 .def_264))) (let ((.def_268 (not .def_267))) (let ((.def_269 (and .def_268 .def_262))) (let ((.def_270 (and .def_126 A18))) (let ((.def_271 (not .def_270))) (let ((.def_272 (and A0 .def_139))) (let ((.def_273 (and .def_272 .def_271))) (let ((.def_274 (not .def_273))) (let ((.def_275 (and A4 A13))) (let ((.def_276 (and A21 .def_58))) (let ((.def_277 (or .def_276 .def_275))) (let ((.def_278 (not .def_277))) (let ((.def_279 (and .def_278 .def_274))) (let ((.def_280 (not .def_279))) (let ((.def_281 (and .def_280 .def_269))) (let ((.def_282 (not .def_281))) (let ((.def_283 (and .def_246 A9))) (let ((.def_284 (or .def_6 A16))) (let ((.def_285 (not .def_284))) (let ((.def_286 (= .def_285 .def_283))) (let ((.def_287 (not .def_286))) (let ((.def_288 (and .def_93 .def_15))) (let ((.def_289 (not .def_288))) (let ((.def_290 (or A24 A16))) (let ((.def_291 (not .def_290))) (let ((.def_292 (and .def_291 .def_289))) (let ((.def_293 (and .def_292 .def_287))) (let ((.def_294 (not .def_293))) (let ((.def_295 (or .def_126 A6))) (let ((.def_296 (not .def_295))) (let ((.def_297 (and A24 .def_265))) (let ((.def_298 (and .def_297 .def_296))) (let ((.def_299 (or A11 A1))) (let ((.def_300 (not A11))) (let ((.def_301 (= A17 .def_300))) (let ((.def_302 (not .def_301))) (let ((.def_303 (or .def_302 .def_299))) (let ((.def_304 (not .def_303))) (let ((.def_305 (or .def_304 .def_298))) (let ((.def_306 (or .def_305 .def_294))) (let ((.def_307 (or .def_306 .def_282))) (let ((.def_308 (not .def_307))) (let ((.def_309 (and .def_308 .def_258))) (let ((.def_310 (or A18 .def_63))) (let ((.def_311 (not .def_310))) (let ((.def_312 (or A21 A8))) (let ((.def_313 (= .def_312 .def_311))) (let ((.def_314 (or A9 A15))) (let ((.def_315 (or .def_314 .def_211))) (let ((.def_316 (or .def_315 .def_313))) (let ((.def_317 (= A3 A11))) (let ((.def_318 (not .def_317))) (let ((.def_319 (= A19 A3))) (let ((.def_320 (not .def_319))) (let ((.def_321 (and .def_320 .def_318))) (let ((.def_322 (and A7 A1))) (let ((.def_323 (or A3 .def_58))) (let ((.def_324 (= .def_323 .def_322))) (let ((.def_325 (and .def_324 .def_321))) (let ((.def_326 (and .def_325 .def_316))) (let ((.def_327 (not .def_326))) (let ((.def_328 (and .def_93 A2))) (let ((.def_329 (not .def_328))) (let ((.def_330 (or A15 .def_139))) (let ((.def_331 (or .def_330 .def_329))) (let ((.def_332 (or .def_246 .def_15))) (let ((.def_333 (and A7 A3))) (let ((.def_334 (not .def_333))) (let ((.def_335 (and .def_334 .def_332))) (let ((.def_336 (not .def_335))) (let ((.def_337 (or .def_336 .def_331))) (let ((.def_338 (not .def_337))) (let ((.def_339 (= A22 A0))) (let ((.def_340 (not .def_339))) (let ((.def_341 (or A24 .def_300))) (let ((.def_342 (and .def_341 .def_340))) (let ((.def_343 (or .def_263 .def_58))) (let ((.def_344 (or .def_126 A20))) (let ((.def_345 (and .def_344 .def_343))) (let ((.def_346 (not .def_345))) (let ((.def_347 (= .def_346 .def_342))) (let ((.def_348 (or .def_347 .def_338))) (let ((.def_349 (or .def_348 .def_327))) (let ((.def_350 (or A1 A15))) (let ((.def_351 (not .def_350))) (let ((.def_352 (and .def_35 .def_6))) (let ((.def_353 (= .def_352 .def_351))) (let ((.def_354 (not .def_353))) (let ((.def_355 (and A0 A20))) (let ((.def_356 (or .def_314 .def_355))) (let ((.def_357 (and .def_356 .def_354))) (let ((.def_358 (not .def_357))) (let ((.def_359 (or A23 .def_265))) (let ((.def_360 (not .def_359))) (let ((.def_361 (and A16 A1))) (let ((.def_362 (or .def_361 .def_360))) (let ((.def_363 (not .def_362))) (let ((.def_364 (or A17 A20))) (let ((.def_365 (= .def_139 .def_49))) (let ((.def_366 (or .def_365 .def_364))) (let ((.def_367 (not .def_366))) (let ((.def_368 (and .def_367 .def_363))) (let ((.def_369 (and .def_368 .def_358))) (let ((.def_370 (= .def_21 .def_126))) (let ((.def_371 (and A20 A14))) (let ((.def_372 (not .def_371))) (let ((.def_373 (and .def_372 .def_370))) (let ((.def_374 (or A5 A13))) (let ((.def_375 (not .def_374))) (let ((.def_376 (or A21 A13))) (let ((.def_377 (or .def_376 .def_375))) (let ((.def_378 (or .def_377 .def_373))) (let ((.def_379 (or .def_188 .def_58))) (let ((.def_380 (not .def_379))) (let ((.def_381 (and .def_32 A0))) (let ((.def_382 (not .def_381))) (let ((.def_383 (or .def_382 .def_380))) (let ((.def_384 (or .def_139 .def_208))) (let ((.def_385 (not .def_384))) (let ((.def_386 (or A20 A11))) (let ((.def_387 (or .def_386 .def_385))) (let ((.def_388 (not .def_387))) (let ((.def_389 (or .def_388 .def_383))) (let ((.def_390 (not .def_389))) (let ((.def_391 (and .def_390 .def_378))) (let ((.def_392 (and .def_391 .def_369))) (let ((.def_393 (or .def_392 .def_349))) (let ((.def_394 (not .def_393))) (let ((.def_395 (and .def_394 .def_309))) (let ((.def_396 (or .def_395 .def_207))) .def_396))))))))))))))))))))))))))))))))))))))))))))))))))))))))))))))))))))))))))))))))))))))))))))))))))))))))))))))))))))))))))))))))))))))))))))))))))))))))))))))))))))))))))))))))))))))))))))))))))))))))))))))))))))))))))))))))))))))))))))))))))))))))))))))))))))))))))))))))))))))))))))))))))))))))))))))))))))))))))))))))))))))))))))))))))))))))))))))))))))))))))))))))))))))))))))))))))))))))))))))
(check-sat)
